treewidth/data/RobertsonGraph.gr
p tw 19 38
1 2
1 18
1 5
1 11
2 12
2 15
2 9
12 13
12 19
12 6
13 14
13 17
13 11
14 15
14 5
14 8
15 16
15 3
16 17
16 6
16 10
17 18
17 4
18 19
18 8
19 3
19 10
3 4
3 7
4 5
4 9
5 6
6 7
7 8
7 11
8 9
9 10
10 11
