treewidth/data/RobertsonGraph.td
c width = 8, time = 0.179009
s td 9 9 19
b 1 4 11 12 13 14 16 17 18
b 2 2 4 7 11 12 14 16 18 19
b 3 2 4 5 7 11 12 14 16 18
b 4 1 2 5 11 18
b 5 5 6 7 12 16
b 6 2 3 4 7 14 15 16 19
b 7 2 4 7 9 11 14 16 18 19
b 8 7 8 9 14 18
b 9 9 10 11 16 19
3 4
3 5
2 3
2 6
7 8
7 9
2 7
1 2
